68
3 87 9 64 
1 112 
2 49 116 
2 25 27 
3 32 42 109 
2 17 100 
2 7 70 
2 36 80 
1 119 
1 15 
2 75 34 
2 44 76 
4 20 88 8 41 
2 43 6 
2 79 93 
2 78 11 
2 23 3 
3 63 33 107 
2 104 52 
1 55 
2 86 38 
1 71 
1 45 
3 68 61 59 
2 85 83 
1 96 
2 103 84 
1 54 
3 114 36 81 
1 77 
1 1 
1 48 
1 29 
3 58 16 99 
2 31 46 
2 13 72 
1 37 
1 105 
3 2 73 39 
2 106 95 
1 69 
2 51 67 
2 94 98 
1 113 
2 91 62 
1 48 
2 40 65 
2 56 28 
1 97 
2 47 30 
2 90 14 
2 35 110 
2 89 82 
2 81 19 
1 21 
2 102 26 
2 66 5 
2 50 10 
2 118 60 
1 111 
1 115 
1 24 
1 4 
2 53 74 
2 101 120 
1 108 
2 22 12 
1 18 
